(set-logic QF_UF)
(declare-fun A0 () Bool)
(declare-fun A1 () Bool)
(declare-fun A2 () Bool)
(declare-fun A3 () Bool)
(declare-fun A4 () Bool)
(declare-fun A5 () Bool)
(declare-fun A6 () Bool)
(declare-fun A7 () Bool)
(declare-fun A8 () Bool)
(declare-fun A9 () Bool)
(declare-fun A10 () Bool)
(declare-fun A11 () Bool)
(declare-fun A12 () Bool)
(declare-fun A13 () Bool)
(declare-fun A14 () Bool)
(declare-fun A15 () Bool)
(declare-fun A16 () Bool)
(declare-fun A17 () Bool)
(declare-fun A18 () Bool)
(declare-fun A19 () Bool)
(declare-fun A20 () Bool)
(declare-fun A21 () Bool)
(declare-fun A22 () Bool)
(declare-fun A23 () Bool)
(declare-fun A24 () Bool)
(assert (let ((.def_0 (not A5))) (let ((.def_1 (or .def_0 A6))) (let ((.def_2 (not A22))) (let ((.def_3 (and A0 .def_2))) (let ((.def_4 (or .def_3 .def_1))) (let ((.def_5 (not .def_4))) (let ((.def_6 (not A10))) (let ((.def_7 (or .def_6 A24))) (let ((.def_8 (or A0 A2))) (let ((.def_9 (not .def_8))) (let ((.def_10 (and .def_9 .def_7))) (let ((.def_11 (not .def_10))) (let ((.def_12 (or .def_11 .def_5))) (let ((.def_13 (not .def_12))) (let ((.def_14 (not A12))) (let ((.def_15 (or A3 .def_14))) (let ((.def_16 (and A5 A9))) (let ((.def_17 (= .def_16 .def_15))) (let ((.def_18 (not .def_17))) (let ((.def_19 (or A2 A22))) (let ((.def_20 (not .def_19))) (let ((.def_21 (not A0))) (let ((.def_22 (and .def_21 A14))) (let ((.def_23 (or .def_22 .def_20))) (let ((.def_24 (and .def_23 .def_18))) (let ((.def_25 (or .def_24 .def_13))) (let ((.def_26 (not .def_25))) (let ((.def_27 (and A17 .def_21))) (let ((.def_28 (or A22 A7))) (let ((.def_29 (not .def_28))) (let ((.def_30 (or .def_29 .def_27))) (let ((.def_31 (not .def_30))) (let ((.def_32 (not A8))) (let ((.def_33 (and .def_32 A1))) (let ((.def_34 (not .def_33))) (let ((.def_35 (or .def_21 A16))) (let ((.def_36 (and .def_35 .def_34))) (let ((.def_37 (not .def_36))) (let ((.def_38 (or .def_37 .def_31))) (let ((.def_39 (not A17))) (let ((.def_40 (not A11))) (let ((.def_41 (or .def_40 .def_39))) (let ((.def_42 (not .def_41))) (let ((.def_43 (and A3 A19))) (let ((.def_44 (not .def_43))) (let ((.def_45 (= .def_44 .def_42))) (let ((.def_46 (not .def_45))) (let ((.def_47 (not A13))) (let ((.def_48 (or A18 .def_47))) (let ((.def_49 (not A24))) (let ((.def_50 (or .def_49 A2))) (let ((.def_51 (not .def_50))) (let ((.def_52 (or .def_51 .def_48))) (let ((.def_53 (not .def_52))) (let ((.def_54 (and .def_53 .def_46))) (let ((.def_55 (or .def_54 .def_38))) (let ((.def_56 (or .def_55 .def_26))) (let ((.def_57 (not .def_56))) (let ((.def_58 (or A8 A1))) (let ((.def_59 (not .def_58))) (let ((.def_60 (or A11 A3))) (let ((.def_61 (or .def_60 .def_59))) (let ((.def_62 (not .def_61))) (let ((.def_63 (not A18))) (let ((.def_64 (not A15))) (let ((.def_65 (or .def_64 .def_63))) (let ((.def_66 (not .def_65))) (let ((.def_67 (not A3))) (let ((.def_68 (or A0 .def_67))) (let ((.def_69 (and .def_68 .def_66))) (let ((.def_70 (or .def_69 .def_62))) (let ((.def_71 (or .def_2 A13))) (let ((.def_72 (not .def_71))) (let ((.def_73 (and .def_63 .def_40))) (let ((.def_74 (not .def_73))) (let ((.def_75 (and .def_74 .def_72))) (let ((.def_76 (not .def_75))) (let ((.def_77 (not A1))) (let ((.def_78 (or .def_77 A20))) (let ((.def_79 (not .def_78))) (let ((.def_80 (not A16))) (let ((.def_81 (not A23))) (let ((.def_82 (or .def_81 .def_80))) (let ((.def_83 (not .def_82))) (let ((.def_84 (and .def_83 .def_79))) (let ((.def_85 (not .def_84))) (let ((.def_86 (or .def_85 .def_76))) (let ((.def_87 (and .def_86 .def_70))) (let ((.def_88 (not A2))) (let ((.def_89 (or .def_80 .def_88))) (let ((.def_90 (not .def_89))) (let ((.def_91 (and A4 A13))) (let ((.def_92 (and .def_91 .def_90))) (let ((.def_93 (not A20))) (let ((.def_94 (and .def_93 A6))) (let ((.def_95 (and A22 .def_81))) (let ((.def_96 (not .def_95))) (let ((.def_97 (and .def_96 .def_94))) (let ((.def_98 (not .def_97))) (let ((.def_99 (and .def_98 .def_92))) (let ((.def_100 (or .def_80 A16))) (let ((.def_101 (not .def_100))) (let ((.def_102 (or .def_47 .def_77))) (let ((.def_103 (or .def_102 .def_101))) (let ((.def_104 (not .def_103))) (let ((.def_105 (and A3 .def_6))) (let ((.def_106 (not .def_105))) (let ((.def_107 (not A6))) (let ((.def_108 (or A13 .def_107))) (let ((.def_109 (and .def_108 .def_106))) (let ((.def_110 (and .def_109 .def_104))) (let ((.def_111 (or .def_110 .def_99))) (let ((.def_112 (and .def_111 .def_87))) (let ((.def_113 (or .def_112 .def_57))) (let ((.def_114 (or A22 A24))) (let ((.def_115 (not .def_114))) (let ((.def_116 (and A23 A12))) (let ((.def_117 (and .def_116 .def_115))) (let ((.def_118 (or .def_81 A13))) (let ((.def_119 (not A7))) (let ((.def_120 (and .def_119 A0))) (let ((.def_121 (not .def_120))) (let ((.def_122 (or .def_121 .def_118))) (let ((.def_123 (or .def_122 .def_117))) (let ((.def_124 (not A19))) (let ((.def_125 (and A10 .def_124))) (let ((.def_126 (or A8 .def_40))) (let ((.def_127 (and .def_126 .def_125))) (let ((.def_128 (not A21))) (let ((.def_129 (and .def_128 .def_21))) (let ((.def_130 (not .def_129))) (let ((.def_131 (or .def_67 .def_47))) (let ((.def_132 (= .def_131 .def_130))) (let ((.def_133 (not .def_132))) (let ((.def_134 (and .def_133 .def_127))) (let ((.def_135 (or .def_134 .def_123))) (let ((.def_136 (and .def_32 A18))) (let ((.def_137 (not .def_136))) (let ((.def_138 (or .def_67 A6))) (let ((.def_139 (not .def_138))) (let ((.def_140 (or .def_139 .def_137))) (let ((.def_141 (and A16 .def_124))) (let ((.def_142 (not .def_141))) (let ((.def_143 (and .def_67 A17))) (let ((.def_144 (not .def_143))) (let ((.def_145 (or .def_144 .def_142))) (let ((.def_146 (not .def_145))) (let ((.def_147 (or .def_146 .def_140))) (let ((.def_148 (and A6 .def_6))) (let ((.def_149 (not A4))) (let ((.def_150 (and .def_149 .def_88))) (let ((.def_151 (and .def_150 .def_148))) (let ((.def_152 (not .def_151))) (let ((.def_153 (and .def_0 A18))) (let ((.def_154 (not .def_153))) (let ((.def_155 (and .def_124 A14))) (let ((.def_156 (not .def_155))) (let ((.def_157 (or .def_156 .def_154))) (let ((.def_158 (or .def_157 .def_152))) (let ((.def_159 (not .def_158))) (let ((.def_160 (or .def_159 .def_147))) (let ((.def_161 (and .def_160 .def_135))) (let ((.def_162 (not .def_161))) (let ((.def_163 (and .def_40 A24))) (let ((.def_164 (or .def_32 A8))) (let ((.def_165 (and .def_164 .def_163))) (let ((.def_166 (not .def_165))) (let ((.def_167 (and .def_14 .def_128))) (let ((.def_168 (not .def_167))) (let ((.def_169 (and .def_64 A15))) (let ((.def_170 (not .def_169))) (let ((.def_171 (or .def_170 .def_168))) (let ((.def_172 (and .def_171 .def_166))) (let ((.def_173 (and .def_81 .def_40))) (let ((.def_174 (not .def_173))) (let ((.def_175 (and .def_39 .def_81))) (let ((.def_176 (and .def_175 .def_174))) (let ((.def_177 (not .def_176))) (let ((.def_178 (and A1 .def_2))) (let ((.def_179 (not .def_178))) (let ((.def_180 (or A18 .def_77))) (let ((.def_181 (not .def_180))) (let ((.def_182 (and .def_181 .def_179))) (let ((.def_183 (or .def_182 .def_177))) (let ((.def_184 (and .def_183 .def_172))) (let ((.def_185 (and .def_124 .def_93))) (let ((.def_186 (not .def_185))) (let ((.def_187 (= .def_81 .def_93))) (let ((.def_188 (not .def_187))) (let ((.def_189 (= .def_188 .def_186))) (let ((.def_190 (or A8 .def_39))) (let ((.def_191 (not .def_190))) (let ((.def_192 (and A8 A16))) (let ((.def_193 (not .def_192))) (let ((.def_194 (or .def_193 .def_191))) (let ((.def_195 (not .def_194))) (let ((.def_196 (= .def_195 .def_189))) (let ((.def_197 (or .def_39 .def_49))) (let ((.def_198 (or A8 A7))) (let ((.def_199 (or .def_198 .def_197))) (let ((.def_200 (not .def_199))) (let ((.def_201 (or A12 .def_64))) (let ((.def_202 (not .def_201))) (let ((.def_203 (and .def_88 A14))) (let ((.def_204 (= .def_203 .def_202))) (let ((.def_205 (and .def_204 .def_200))) (let ((.def_206 (or .def_205 .def_196))) (let ((.def_207 (not .def_206))) (let ((.def_208 (and .def_207 .def_184))) (let ((.def_209 (not .def_208))) (let ((.def_210 (or .def_209 .def_162))) (let ((.def_211 (and .def_210 .def_113))) (let ((.def_212 (or .def_47 .def_63))) (let ((.def_213 (not .def_212))) (let ((.def_214 (and .def_14 .def_21))) (let ((.def_215 (or .def_214 .def_213))) (let ((.def_216 (and A5 A4))) (let ((.def_217 (not .def_216))) (let ((.def_218 (and .def_2 A7))) (let ((.def_219 (= .def_218 .def_217))) (let ((.def_220 (= .def_219 .def_215))) (let ((.def_221 (not .def_220))) (let ((.def_222 (or .def_128 .def_81))) (let ((.def_223 (or .def_49 .def_93))) (let ((.def_224 (not .def_223))) (let ((.def_225 (or .def_224 .def_222))) (let ((.def_226 (or A0 .def_124))) (let ((.def_227 (not .def_226))) (let ((.def_228 (= .def_49 .def_2))) (let ((.def_229 (not .def_228))) (let ((.def_230 (or .def_229 .def_227))) (let ((.def_231 (or .def_230 .def_225))) (let ((.def_232 (not .def_231))) (let ((.def_233 (= .def_232 .def_221))) (let ((.def_234 (not .def_233))) (let ((.def_235 (and A16 .def_32))) (let ((.def_236 (not .def_235))) (let ((.def_237 (or .def_88 A14))) (let ((.def_238 (not .def_237))) (let ((.def_239 (or .def_238 .def_236))) (let ((.def_240 (and .def_119 .def_67))) (let ((.def_241 (or A19 .def_149))) (let ((.def_242 (or .def_241 .def_240))) (let ((.def_243 (or .def_242 .def_239))) (let ((.def_244 (not .def_243))) (let ((.def_245 (or .def_64 A16))) (let ((.def_246 (not .def_245))) (let ((.def_247 (and .def_149 A15))) (let ((.def_248 (not .def_247))) (let ((.def_249 (or .def_248 .def_246))) (let ((.def_250 (not A14))) (let ((.def_251 (or A20 .def_250))) (let ((.def_252 (not .def_251))) (let ((.def_253 (not A9))) (let ((.def_254 (= .def_253 A12))) (let ((.def_255 (or .def_254 .def_252))) (let ((.def_256 (not .def_255))) (let ((.def_257 (= .def_256 .def_249))) (let ((.def_258 (and .def_257 .def_244))) (let ((.def_259 (not .def_258))) (let ((.def_260 (or .def_259 .def_234))) (let ((.def_261 (= A24 A12))) (let ((.def_262 (not .def_261))) (let ((.def_263 (= .def_93 .def_63))) (let ((.def_264 (not .def_263))) (let ((.def_265 (and .def_264 .def_262))) (let ((.def_266 (not .def_265))) (let ((.def_267 (or A19 .def_124))) (let ((.def_268 (and A2 A13))) (let ((.def_269 (not .def_268))) (let ((.def_270 (or .def_269 .def_267))) (let ((.def_271 (= .def_270 .def_266))) (let ((.def_272 (not .def_271))) (let ((.def_273 (and A22 A11))) (let ((.def_274 (not .def_273))) (let ((.def_275 (or A12 .def_67))) (let ((.def_276 (not .def_275))) (let ((.def_277 (or .def_276 .def_274))) (let ((.def_278 (not .def_277))) (let ((.def_279 (and .def_128 A0))) (let ((.def_280 (and .def_124 A8))) (let ((.def_281 (or .def_280 .def_279))) (let ((.def_282 (or .def_281 .def_278))) (let ((.def_283 (and .def_282 .def_272))) (let ((.def_284 (not .def_283))) (let ((.def_285 (and A11 .def_21))) (let ((.def_286 (not .def_285))) (let ((.def_287 (and A6 .def_250))) (let ((.def_288 (not .def_287))) (let ((.def_289 (or .def_288 .def_286))) (let ((.def_290 (not .def_289))) (let ((.def_291 (or A4 .def_128))) (let ((.def_292 (= .def_93 A8))) (let ((.def_293 (and .def_292 .def_291))) (let ((.def_294 (or .def_293 .def_290))) (let ((.def_295 (not .def_294))) (let ((.def_296 (or .def_47 .def_0))) (let ((.def_297 (not .def_296))) (let ((.def_298 (or .def_149 A15))) (let ((.def_299 (not .def_298))) (let ((.def_300 (and .def_299 .def_297))) (let ((.def_301 (not .def_300))) (let ((.def_302 (or .def_250 .def_80))) (let ((.def_303 (not .def_302))) (let ((.def_304 (and .def_6 A6))) (let ((.def_305 (and .def_304 .def_303))) (let ((.def_306 (not .def_305))) (let ((.def_307 (or .def_306 .def_301))) (let ((.def_308 (not .def_307))) (let ((.def_309 (and .def_308 .def_295))) (let ((.def_310 (and .def_309 .def_284))) (let ((.def_311 (not .def_310))) (let ((.def_312 (and .def_311 .def_260))) (let ((.def_313 (not .def_312))) (let ((.def_314 (and A3 A20))) (let ((.def_315 (not .def_314))) (let ((.def_316 (or A3 .def_67))) (let ((.def_317 (not .def_316))) (let ((.def_318 (or .def_317 .def_315))) (let ((.def_319 (not .def_318))) (let ((.def_320 (or .def_49 .def_6))) (let ((.def_321 (not .def_320))) (let ((.def_322 (or A2 A12))) (let ((.def_323 (not .def_322))) (let ((.def_324 (or .def_323 .def_321))) (let ((.def_325 (and .def_324 .def_319))) (let ((.def_326 (and .def_0 A10))) (let ((.def_327 (not .def_326))) (let ((.def_328 (or .def_49 .def_81))) (let ((.def_329 (not .def_328))) (let ((.def_330 (= .def_329 .def_327))) (let ((.def_331 (or A2 A23))) (let ((.def_332 (not .def_331))) (let ((.def_333 (and A21 A9))) (let ((.def_334 (not .def_333))) (let ((.def_335 (or .def_334 .def_332))) (let ((.def_336 (and .def_335 .def_330))) (let ((.def_337 (or .def_336 .def_325))) (let ((.def_338 (not .def_337))) (let ((.def_339 (and .def_64 A11))) (let ((.def_340 (or .def_253 A15))) (let ((.def_341 (or .def_340 .def_339))) (let ((.def_342 (or .def_64 .def_253))) (let ((.def_343 (not .def_342))) (let ((.def_344 (or A3 .def_128))) (let ((.def_345 (or .def_344 .def_343))) (let ((.def_346 (and .def_345 .def_341))) (let ((.def_347 (not .def_346))) (let ((.def_348 (or .def_253 .def_14))) (let ((.def_349 (and .def_47 A3))) (let ((.def_350 (not .def_349))) (let ((.def_351 (and .def_350 .def_348))) (let ((.def_352 (or A3 .def_6))) (let ((.def_353 (not .def_352))) (let ((.def_354 (or .def_39 .def_67))) (let ((.def_355 (and .def_354 .def_353))) (let ((.def_356 (or .def_355 .def_351))) (let ((.def_357 (not .def_356))) (let ((.def_358 (= .def_357 .def_347))) (let ((.def_359 (and .def_358 .def_338))) (let ((.def_360 (or A23 A2))) (let ((.def_361 (and .def_2 .def_21))) (let ((.def_362 (not .def_361))) (let ((.def_363 (or .def_362 .def_360))) (let ((.def_364 (or A6 .def_47))) (let ((.def_365 (and .def_119 .def_128))) (let ((.def_366 (not .def_365))) (let ((.def_367 (and .def_366 .def_364))) (let ((.def_368 (or .def_367 .def_363))) (let ((.def_369 (not .def_368))) (let ((.def_370 (and .def_128 A24))) (let ((.def_371 (and A19 .def_0))) (let ((.def_372 (and .def_371 .def_370))) (let ((.def_373 (not .def_372))) (let ((.def_374 (and A21 A13))) (let ((.def_375 (not .def_374))) (let ((.def_376 (and .def_124 .def_6))) (let ((.def_377 (not .def_376))) (let ((.def_378 (or .def_377 .def_375))) (let ((.def_379 (not .def_378))) (let ((.def_380 (and .def_379 .def_373))) (let ((.def_381 (not .def_380))) (let ((.def_382 (or .def_381 .def_369))) (let ((.def_383 (and .def_6 .def_49))) (let ((.def_384 (not .def_383))) (let ((.def_385 (or A10 .def_63))) (let ((.def_386 (not .def_385))) (let ((.def_387 (or .def_386 .def_384))) (let ((.def_388 (and .def_81 .def_64))) (let ((.def_389 (= A22 .def_6))) (let ((.def_390 (and .def_389 .def_388))) (let ((.def_391 (or .def_390 .def_387))) (let ((.def_392 (not .def_391))) (let ((.def_393 (and A22 .def_21))) (let ((.def_394 (not .def_393))) (let ((.def_395 (or .def_0 A16))) (let ((.def_396 (not .def_395))) (let ((.def_397 (or .def_396 .def_394))) (let ((.def_398 (and .def_47 .def_49))) (let ((.def_399 (or .def_63 .def_128))) (let ((.def_400 (not .def_399))) (let ((.def_401 (and .def_400 .def_398))) (let ((.def_402 (and .def_401 .def_397))) (let ((.def_403 (not .def_402))) (let ((.def_404 (and .def_403 .def_392))) (let ((.def_405 (not .def_404))) (let ((.def_406 (and .def_405 .def_382))) (let ((.def_407 (not .def_406))) (let ((.def_408 (and .def_407 .def_359))) (let ((.def_409 (not .def_408))) (let ((.def_410 (and .def_409 .def_313))) (let ((.def_411 (not .def_410))) (let ((.def_412 (or .def_411 .def_211))) (let ((.def_413 (not .def_412))) .def_413)))))))))))))))))))))))))))))))))))))))))))))))))))))))))))))))))))))))))))))))))))))))))))))))))))))))))))))))))))))))))))))))))))))))))))))))))))))))))))))))))))))))))))))))))))))))))))))))))))))))))))))))))))))))))))))))))))))))))))))))))))))))))))))))))))))))))))))))))))))))))))))))))))))))))))))))))))))))))))))))))))))))))))))))))))))))))))))))))))))))))))))))))))))))))))))))))))))))))))))))))))))))))))))))
(check-sat)
